1586927
36,52,43,13,9,17,56,32,51,21,30,27,49,35,58,15,62,23,60,2,20,37,6,42,45,33,54,25,65,10,66,63,5,40,29,24,28,4,18,48,22,59,39,55,31,41,11,0,53,46,12,64,19,3,47,1,44,26,16,8,57,14,7,67,34,50,38,61
